#LAMMPS input file for graphene

units          metal
boundary       p p p
atom_style     atomic

read_data      data.graphene_MD
  

pair_style     airebo 3.0 1 1 
pair_coeff     * * CH.airebo C

group          g_C type 1
mass           1 12.0107

#******************************************************
# Relaxation

variable       minzdir equal bound(g_C,zmin)
variable       maxzdir equal bound(g_C,zmax)

variable       gapzdir equal v_maxzdir-v_minzdir

thermo          50

thermo_style    custom step temp v_gapzdir pe 


fix             1 all nve
fix             2 all box/relax x 0.0 y 0.0 z 0.0 

dump          mydump all cfg 50 relax_*.cfg mass type xs ys zs id 

#dump            dumpout all atom 100 dump.lammpstrj

minimize        1e-8 1e-9 10000 10000
