units metal
atom_style atomic

read_data data.graphene_MD

pair_style airebo 3.0
pair_coeff * * CH.airebo C

# Define simulation parameters
fix 1 all nve
timestep 0.001

# Output thermo data every 100 steps
thermo 100
thermo_style custom step pe

# Output atomic positions every 100 steps
dump 1 all custom 100 dump.graphene id type x y z

# Run the simulation for 10000 steps (or as needed)
run 10000
