units          metal
boundary       p p p
atom_style     atomic

#change the name of the file
read_data      data.graphene_MD

pair_style     airebo 3.0 1 0
pair_coeff     * * CH.airebo  C

group          g_C1 type 1
mass           1 12.011

#lx/(3*X) X=number of unit cell in the X direction
variable       latx equal lx/(3*10)

thermo          50


thermo_style    custom step temp press pe v_latx vol 

fix             1 all nve
fix             2 all box/relax x 0.0 y 0.0

dump            mydump all cfg 50 track_*.cfg mass type xs ys zs id
dump_modify     mydump element C

#dump            dumpout all atom 1 dump.lammpstrj

minimize        1e-7 1e-8 10000 100000
